n_res = 4;
rc = [ 15, 14, 13, 15 ];
n_tasks = 60;
d = [ 8, 2, 2, 5, 10, 7, 3, 9, 9, 8, 8, 10, 1, 8, 8, 3, 2, 6, 9, 2, 9, 7, 3, 1, 5, 3, 7, 10, 6, 5, 2, 9, 3, 5, 7, 5, 8, 1, 8, 9, 10, 3, 7, 9, 6, 7, 8, 1, 1, 3, 6, 6, 5, 9, 5, 10, 2, 2, 10, 4 ];
rr = [| 10, 9, 2, 0, 0, 10, 0, 9, 1, 10, 0, 0, 0, 0, 9, 0, 0, 0, 0, 9, 6, 2, 10, 0, 0, 0, 0, 0, 0, 0, 2, 7, 0, 9, 8, 8, 3, 8, 0, 0, 3, 5, 7, 9, 0, 0, 0, 0, 2, 6, 3, 0, 0, 0, 0, 3, 0, 0, 0, 3
      | 4, 0, 7, 0, 1, 0, 5, 0, 0, 8, 0, 10, 10, 0, 0, 0, 0, 0, 9, 0, 0, 0, 2, 4, 6, 0, 0, 5, 4, 8, 9, 4, 0, 0, 0, 0, 7, 1, 0, 2, 0, 1, 0, 8, 0, 10, 2, 0, 0, 0, 0, 7, 0, 1, 10, 0, 1, 2, 0, 0
      | 0, 0, 0, 4, 3, 0, 0, 0, 0, 0, 5, 10, 7, 6, 0, 9, 6, 2, 0, 1, 0, 0, 0, 0, 0, 3, 4, 0, 0, 0, 2, 1, 6, 0, 8, 3, 0, 3, 1, 0, 0, 6, 9, 3, 0, 6, 5, 0, 0, 0, 0, 5, 5, 3, 0, 0, 0, 1, 3, 0
      | 10, 8, 8, 8, 0, 6, 0, 1, 6, 0, 8, 10, 0, 9, 0, 1, 0, 0, 4, 1, 0, 0, 0, 5, 3, 0, 3, 0, 0, 4, 2, 5, 0, 0, 2, 7, 0, 10, 1, 7, 0, 0, 0, 1, 7, 0, 0, 5, 0, 0, 8, 10, 7, 2, 5, 8, 0, 7, 9, 8 |];
suc = [ { 43, 45, 49 },
       { 4, 5, 6 },
       { 12, 17, 39 },
       { 8, 28 },
       { 11, 23, 29 },
       { 7, 9, 15 },
       { 10, 22, 54 },
       { 20, 43, 53 },
       { 27, 50, 58 },
       { 14, 18, 44 },
       { 13, 16, 21 },
       { 18, 29, 47 },
       { 19, 28, 30 },
       { 21, 25, 36 },
       { 50 },
       { 24, 32, 37 },
       { 20, 26, 36 },
       { 23, 38, 56 },
       { 26, 33, 44 },
       { 23, 24, 42 },
       { 31, 55 },
       { 24, 30, 35 },
       { 27, 51 },
       { 44, 46 },
       { 33, 35 },
       { 27, 40, 45 },
       { 59 },
       { 31, 37 },
       { 30, 34, 40 },
       { 31, 41, 52 },
       { 38 },
       { 35, 39, 40 },
       { 38, 48 },
       { 36, 37 },
       { 46, 60 },
       { 41, 51 },
       { 50, 53 },
       { 42, 49 },
       { 42, 45, 57 },
       { 41, 43 },
       { 48, 49 },
       { 51 },
       { 48, 52 },
       { 47, 52, 56 },
       { 46, 54 },
       { 47 },
       { 58 },
       { 55 },
       { 53 },
       { 54 },
       { 58 },
       { 57 },
       { 57 },
       { 55, 56 },
       { 59, 60 },
       { 59 },
       { 60 },
       {  },
       {  },
       {  } ];
